%chk=check_GaussInput_SYS_ALL.chk
# HF/6-31G(d) Pop=CHelpG 

GaussInput_SYS_ALL Charge Analysis

0 1
C     9.182  36.498  13.616
H     9.623  36.802  14.544
C     8.247  35.521  13.474
H     7.959  34.921  14.315
C     7.704  35.256  12.186
H      6.98  34.477  12.035
C     8.195  35.972  11.106
H     7.795  35.756  10.135
C     9.146  36.912  11.338
H     9.557  37.474  10.523
N     9.631  37.149   12.55
C    10.783  38.056  12.543
H    11.286   37.91  13.487
H    11.496  37.699  11.815
C    10.357   39.51    12.6
H     9.647  39.648  11.788
H    11.183   40.21  12.503
C     9.656  39.851  13.904
H     8.978  39.103  14.309
H    10.396  39.775  14.697
C     8.909   41.17  13.821
H     8.585  41.416  14.826
H     9.448  41.965  13.319
H     7.949  41.012  13.343
B    10.943  28.724  18.615
F    11.882  29.483  19.313
F    11.402  27.407  18.471
F     9.809  28.702  19.333
F    10.604  29.246  17.417



